NAME : eil101.tsp
TYPE : TOUR
DIMENSION : 101
TOUR_LENGTH : 726.306686941965
TOUR_SECTION
1
69
27
101
53
58
40
26
12
80
68
77
3
79
33
81
9
51
20
30
70
31
88
7
82
48
47
36
49
64
11
19
62
10
90
32
63
66
65
71
35
34
78
29
24
54
55
25
39
23
67
4
56
75
74
22
41
73
72
21
2
57
15
43
42
87
97
92
59
99
96
6
94
95
13
60
83
18
52
89
46
8
45
17
84
5
61
16
44
14
38
86
91
100
37
98
93
85
28
76
50
-1
